3701.95
0 64 83 85 81 84 87 86 100 93 97 99 96 91 88 94 98 75 73 79 62 68 58 67 0 
0 52 59 77 82 95 90 0 
0 55 80 78 37 44 72 92 89 0 
0 41 46 76 69 74 0 
0 27 65 66 50 60 40 34 56 57 51 53 71 70 0 
0 17 61 49 45 54 63 48 47 33 9 0 
0 35 43 42 38 31 39 30 0 
0 22 18 26 23 32 29 28 36 0 
0 19 24 20 14 25 16 4 10 0 
0 21 12 15 11 13 7 6 8 0 
0 3 5 1 2 0 
